proyfinal/src/viki/013/andrea/andrea-localstore/experimentInOfficeAgust.take6/worker_4/6212b889-99f8-45a5-8cf6-9b4617eb4b3f.als.cnf.out
Reading from standard input... Use '--help' for help.
============================[ Problem Statistics ]=============================
|                                                                             |
|  Number of variables:         87638                                         |
|  Number of clauses:          161767                                         |
|  Parse time:                   0.04 s                                       |
|                                                                             |
============================[ Search Statistics ]==============================
| Conflicts |          ORIGINAL         |          LEARNT          | Progress |
|           |    Vars  Clauses Literals |    Limit  Clauses Lit/Cl |          |
===============================================================================
|       100 |   62715   106373   265833 |    39003      100     10 | 28.439 % |
|       250 |   62715   106373   265833 |    42903      250     35 | 28.439 % |
|       475 |   62715   106373   265833 |    47194      475     50 | 28.439 % |
|       812 |   51003    73108   184125 |    51913      799     73 | 41.803 % |
|      1318 |   50972    73006   183902 |    57104     1301     69 | 41.838 % |
|      2077 |   50972    72944   183748 |    62815     2060     67 | 41.838 % |
|      3216 |   50934    72800   183412 |    69096     3197     67 | 41.881 % |
|      4924 |   50777    72442   182490 |    76006     4900     66 | 42.061 % |
|      7486 |   50432    71526   180212 |    83607     7427     61 | 42.454 % |
|     11330 |   49826    68528   173042 |    91968    11197     61 | 43.146 % |
===============================================================================
restarts              : 63
conflicts             : 17062          (7712 /sec)
decisions             : 50804          (0.00 % random) (22963 /sec)
propagations          : 24045728       (10868293 /sec)
conflict literals     : 950199         (46.17 % deleted)
Memory used           : 29.15 MB
CPU time              : 2.21247 s

UNSATISFIABLE
